Minimize
	value: tt

Subject to
tt + 1000 s_1_1 > 0.0
tt - t_1_1 - 1000.000000 s_1_1  + 0.000000 s_1_7  > -981.205767
tt + 1000 s_2_1 > 0.0
tt - t_2_1 - 1000.000000 s_2_1  + 0.000000 s_2_7  > -967.272387
tt + 1000 s_1_2 > 0.0
tt - t_1_2 - 1000.000000 s_1_2  + 0.000000 s_1_7  > -984.675133
tt + 1000 s_2_2 > 0.0
tt - t_2_2 - 1000.000000 s_2_2  + 0.000000 s_2_7  > -966.315198
tt + 1000 s_1_3 > 0.0
tt - t_1_3 - 1000.000000 s_1_3  + 0.000000 s_1_7  > -987.382569
tt + 1000 s_2_3 > 0.0
tt - t_2_3 - 1000.000000 s_2_3  + 0.000000 s_2_7  > -971.849188
tt + 1000 s_1_4 > 0.0
tt - t_1_4 - 1000.000000 s_1_4  + 0.000000 s_1_1  + 0.000000 s_1_2  > -998.268500
tt + 1000 s_2_4 > 0.0
tt - t_2_4 - 1000.000000 s_2_4  + 0.000000 s_2_1  + 0.000000 s_2_2  > -995.183912
tt + 1000 s_1_5 > 0.0
tt - t_1_5 - 1000.000000 s_1_5  + 0.000000 s_1_1  + 0.000000 s_1_7  > -993.487867
tt + 1000 s_2_5 > 0.0
tt - t_2_5 - 1000.000000 s_2_5  + 0.000000 s_2_1  + 0.000000 s_2_7  > -984.794591
tt + 1000 s_1_6 > 0.0
tt - t_1_6 - 1000.000000 s_1_6  + 0.000000 s_1_4  + 0.000000 s_1_2  + 0.000000 s_1_3  + 0.000000 s_1_5  > -996.410100
tt + 1000 s_2_6 > 0.0
tt - t_2_6 - 1000.000000 s_2_6  + 0.000000 s_2_4  + 0.000000 s_2_2  + 0.000000 s_2_3  + 0.000000 s_2_5  > -991.761350
tt + 1000 s_1_7 > 0.0
tt - t_1_7 - 1000.000000 s_1_7  > -985.511925
tt + 1000 s_2_7 > 0.0
tt - t_2_7 - 1000.000000 s_2_7  > -983.718263
s_1_1 + s_2_1 = 1
s_1_2 + s_2_2 = 1
s_1_3 + s_2_3 = 1
s_1_4 + s_2_4 = 1
s_1_5 + s_2_5 = 1
s_1_6 + s_2_6 = 1
s_1_7 + s_2_7 = 1
s_1_1 + s_1_2 + 1000 r_1_1_2 >= 2
- s_1_1 - s_1_2 - 1000 r_1_1_2 >= -1001
t_1_1 - t_1_2 - 1000.000000 u_1_1_2 - 0.000000 s_1_2  + 0.000000 s_1_7  + 2000.000000 r_1_1_2 > -984.675133
s_2_1 + s_2_2 + 1000 r_2_1_2 >= 2
- s_2_1 - s_2_2 - 1000 r_2_1_2 >= -1001
t_2_1 - t_2_2 - 1000.000000 u_2_1_2 - 0.000000 s_2_2  + 0.000000 s_2_7  + 2000.000000 r_2_1_2 > -966.315198
s_1_1 + s_1_3 + 1000 r_1_1_3 >= 2
- s_1_1 - s_1_3 - 1000 r_1_1_3 >= -1001
t_1_1 - t_1_3 - 1000.000000 u_1_1_3 - 0.000000 s_1_3  + 0.000000 s_1_7  + 2000.000000 r_1_1_3 > -987.382569
s_2_1 + s_2_3 + 1000 r_2_1_3 >= 2
- s_2_1 - s_2_3 - 1000 r_2_1_3 >= -1001
t_2_1 - t_2_3 - 1000.000000 u_2_1_3 - 0.000000 s_2_3  + 0.000000 s_2_7  + 2000.000000 r_2_1_3 > -971.849188
t_1_4 - t_1_1 - 1000.000000 s_1_1  + 0.000000 s_1_7  > -981.205767
t_1_4 - t_2_1 - 1000.000000 s_2_1  + 0.000000 s_2_7  > -967.272387
t_2_4 - t_1_1 - 1000.000000 s_1_1  + 0.000000 s_1_7  > -981.205767
t_2_4 - t_2_1 - 1000.000000 s_2_1  + 0.000000 s_2_7  > -967.272387
t_1_5 - t_1_1 - 1000.000000 s_1_1  + 0.000000 s_1_7  > -981.205767
t_1_5 - t_2_1 - 1000.000000 s_2_1  + 0.000000 s_2_7  > -967.272387
t_2_5 - t_1_1 - 1000.000000 s_1_1  + 0.000000 s_1_7  > -981.205767
t_2_5 - t_2_1 - 1000.000000 s_2_1  + 0.000000 s_2_7  > -967.272387
t_1_1 - t_1_7 - 1000.000000 s_1_7  > -985.511925
t_1_1 - t_2_7 - 1000.000000 s_2_7  > -983.718263
t_2_1 - t_1_7 - 1000.000000 s_1_7  > -985.511925
t_2_1 - t_2_7 - 1000.000000 s_2_7  > -983.718263
s_1_2 + s_1_1 + 1000 r_1_1_2 >= 2
- s_1_2 - s_1_1 - 1000 r_1_1_2 >= -1001
t_1_2 - t_1_1 + 1000.000000 u_1_1_2 - 0.000000 s_1_1  + 0.000000 s_1_7  + 2000.000000 r_1_1_2 > 18.794233
s_2_2 + s_2_1 + 1000 r_2_1_2 >= 2
- s_2_2 - s_2_1 - 1000 r_2_1_2 >= -1001
t_2_2 - t_2_1 + 1000.000000 u_2_1_2 - 0.000000 s_2_1  + 0.000000 s_2_7  + 2000.000000 r_2_1_2 > 32.727613
s_1_2 + s_1_3 + 1000 r_1_2_3 >= 2
- s_1_2 - s_1_3 - 1000 r_1_2_3 >= -1001
t_1_2 - t_1_3 - 1000.000000 u_1_2_3 - 0.000000 s_1_3  + 0.000000 s_1_7  + 2000.000000 r_1_2_3 > -987.382569
s_2_2 + s_2_3 + 1000 r_2_2_3 >= 2
- s_2_2 - s_2_3 - 1000 r_2_2_3 >= -1001
t_2_2 - t_2_3 - 1000.000000 u_2_2_3 - 0.000000 s_2_3  + 0.000000 s_2_7  + 2000.000000 r_2_2_3 > -971.849188
t_1_4 - t_1_2 - 1000.000000 s_1_2  + 0.000000 s_1_7  > -984.675133
t_1_4 - t_2_2 - 1000.000000 s_2_2  + 0.000000 s_2_7  > -966.315198
t_2_4 - t_1_2 - 1000.000000 s_1_2  + 0.000000 s_1_7  > -984.675133
t_2_4 - t_2_2 - 1000.000000 s_2_2  + 0.000000 s_2_7  > -966.315198
s_1_2 + s_1_5 + 1000 r_1_2_5 >= 2
- s_1_2 - s_1_5 - 1000 r_1_2_5 >= -1001
t_1_2 - t_1_5 - 1000.000000 u_1_2_5 - 0.000000 s_1_5  + 0.000000 s_1_1  + 0.000000 s_1_7  + 2000.000000 r_1_2_5 > -993.487867
s_2_2 + s_2_5 + 1000 r_2_2_5 >= 2
- s_2_2 - s_2_5 - 1000 r_2_2_5 >= -1001
t_2_2 - t_2_5 - 1000.000000 u_2_2_5 - 0.000000 s_2_5  + 0.000000 s_2_1  + 0.000000 s_2_7  + 2000.000000 r_2_2_5 > -984.794591
t_1_6 - t_1_2 - 1000.000000 s_1_2  + 0.000000 s_1_7  > -984.675133
t_1_6 - t_2_2 - 1000.000000 s_2_2  + 0.000000 s_2_7  > -966.315198
t_2_6 - t_1_2 - 1000.000000 s_1_2  + 0.000000 s_1_7  > -984.675133
t_2_6 - t_2_2 - 1000.000000 s_2_2  + 0.000000 s_2_7  > -966.315198
t_1_2 - t_1_7 - 1000.000000 s_1_7  > -985.511925
t_1_2 - t_2_7 - 1000.000000 s_2_7  > -983.718263
t_2_2 - t_1_7 - 1000.000000 s_1_7  > -985.511925
t_2_2 - t_2_7 - 1000.000000 s_2_7  > -983.718263
s_1_3 + s_1_1 + 1000 r_1_1_3 >= 2
- s_1_3 - s_1_1 - 1000 r_1_1_3 >= -1001
t_1_3 - t_1_1 + 1000.000000 u_1_1_3 - 0.000000 s_1_1  + 0.000000 s_1_7  + 2000.000000 r_1_1_3 > 18.794233
s_2_3 + s_2_1 + 1000 r_2_1_3 >= 2
- s_2_3 - s_2_1 - 1000 r_2_1_3 >= -1001
t_2_3 - t_2_1 + 1000.000000 u_2_1_3 - 0.000000 s_2_1  + 0.000000 s_2_7  + 2000.000000 r_2_1_3 > 32.727613
s_1_3 + s_1_2 + 1000 r_1_2_3 >= 2
- s_1_3 - s_1_2 - 1000 r_1_2_3 >= -1001
t_1_3 - t_1_2 + 1000.000000 u_1_2_3 - 0.000000 s_1_2  + 0.000000 s_1_7  + 2000.000000 r_1_2_3 > 15.324867
s_2_3 + s_2_2 + 1000 r_2_2_3 >= 2
- s_2_3 - s_2_2 - 1000 r_2_2_3 >= -1001
t_2_3 - t_2_2 + 1000.000000 u_2_2_3 - 0.000000 s_2_2  + 0.000000 s_2_7  + 2000.000000 r_2_2_3 > 33.684802
s_1_3 + s_1_4 + 1000 r_1_3_4 >= 2
- s_1_3 - s_1_4 - 1000 r_1_3_4 >= -1001
t_1_3 - t_1_4 - 1000.000000 u_1_3_4 - 0.000000 s_1_4  + 0.000000 s_1_1  + 0.000000 s_1_2  + 2000.000000 r_1_3_4 > -998.268500
s_2_3 + s_2_4 + 1000 r_2_3_4 >= 2
- s_2_3 - s_2_4 - 1000 r_2_3_4 >= -1001
t_2_3 - t_2_4 - 1000.000000 u_2_3_4 - 0.000000 s_2_4  + 0.000000 s_2_1  + 0.000000 s_2_2  + 2000.000000 r_2_3_4 > -995.183912
s_1_3 + s_1_5 + 1000 r_1_3_5 >= 2
- s_1_3 - s_1_5 - 1000 r_1_3_5 >= -1001
t_1_3 - t_1_5 - 1000.000000 u_1_3_5 - 0.000000 s_1_5  + 0.000000 s_1_1  + 0.000000 s_1_7  + 2000.000000 r_1_3_5 > -993.487867
s_2_3 + s_2_5 + 1000 r_2_3_5 >= 2
- s_2_3 - s_2_5 - 1000 r_2_3_5 >= -1001
t_2_3 - t_2_5 - 1000.000000 u_2_3_5 - 0.000000 s_2_5  + 0.000000 s_2_1  + 0.000000 s_2_7  + 2000.000000 r_2_3_5 > -984.794591
t_1_6 - t_1_3 - 1000.000000 s_1_3  + 0.000000 s_1_7  > -987.382569
t_1_6 - t_2_3 - 1000.000000 s_2_3  + 0.000000 s_2_7  > -971.849188
t_2_6 - t_1_3 - 1000.000000 s_1_3  + 0.000000 s_1_7  > -987.382569
t_2_6 - t_2_3 - 1000.000000 s_2_3  + 0.000000 s_2_7  > -971.849188
t_1_3 - t_1_7 - 1000.000000 s_1_7  > -985.511925
t_1_3 - t_2_7 - 1000.000000 s_2_7  > -983.718263
t_2_3 - t_1_7 - 1000.000000 s_1_7  > -985.511925
t_2_3 - t_2_7 - 1000.000000 s_2_7  > -983.718263
s_1_4 + s_1_3 + 1000 r_1_3_4 >= 2
- s_1_4 - s_1_3 - 1000 r_1_3_4 >= -1001
t_1_4 - t_1_3 + 1000.000000 u_1_3_4 - 0.000000 s_1_3  + 0.000000 s_1_7  + 2000.000000 r_1_3_4 > 12.617431
s_2_4 + s_2_3 + 1000 r_2_3_4 >= 2
- s_2_4 - s_2_3 - 1000 r_2_3_4 >= -1001
t_2_4 - t_2_3 + 1000.000000 u_2_3_4 - 0.000000 s_2_3  + 0.000000 s_2_7  + 2000.000000 r_2_3_4 > 28.150812
s_1_4 + s_1_5 + 1000 r_1_4_5 >= 2
- s_1_4 - s_1_5 - 1000 r_1_4_5 >= -1001
t_1_4 - t_1_5 - 1000.000000 u_1_4_5 - 0.000000 s_1_5  + 0.000000 s_1_1  + 0.000000 s_1_7  + 2000.000000 r_1_4_5 > -993.487867
s_2_4 + s_2_5 + 1000 r_2_4_5 >= 2
- s_2_4 - s_2_5 - 1000 r_2_4_5 >= -1001
t_2_4 - t_2_5 - 1000.000000 u_2_4_5 - 0.000000 s_2_5  + 0.000000 s_2_1  + 0.000000 s_2_7  + 2000.000000 r_2_4_5 > -984.794591
t_1_6 - t_1_4 - 1000.000000 s_1_4  + 0.000000 s_1_1  + 0.000000 s_1_2  > -998.268500
t_1_6 - t_2_4 - 1000.000000 s_2_4  + 0.000000 s_2_1  + 0.000000 s_2_2  > -995.183912
t_2_6 - t_1_4 - 1000.000000 s_1_4  + 0.000000 s_1_1  + 0.000000 s_1_2  > -998.268500
t_2_6 - t_2_4 - 1000.000000 s_2_4  + 0.000000 s_2_1  + 0.000000 s_2_2  > -995.183912
s_1_5 + s_1_2 + 1000 r_1_2_5 >= 2
- s_1_5 - s_1_2 - 1000 r_1_2_5 >= -1001
t_1_5 - t_1_2 + 1000.000000 u_1_2_5 - 0.000000 s_1_2  + 0.000000 s_1_7  + 2000.000000 r_1_2_5 > 15.324867
s_2_5 + s_2_2 + 1000 r_2_2_5 >= 2
- s_2_5 - s_2_2 - 1000 r_2_2_5 >= -1001
t_2_5 - t_2_2 + 1000.000000 u_2_2_5 - 0.000000 s_2_2  + 0.000000 s_2_7  + 2000.000000 r_2_2_5 > 33.684802
s_1_5 + s_1_3 + 1000 r_1_3_5 >= 2
- s_1_5 - s_1_3 - 1000 r_1_3_5 >= -1001
t_1_5 - t_1_3 + 1000.000000 u_1_3_5 - 0.000000 s_1_3  + 0.000000 s_1_7  + 2000.000000 r_1_3_5 > 12.617431
s_2_5 + s_2_3 + 1000 r_2_3_5 >= 2
- s_2_5 - s_2_3 - 1000 r_2_3_5 >= -1001
t_2_5 - t_2_3 + 1000.000000 u_2_3_5 - 0.000000 s_2_3  + 0.000000 s_2_7  + 2000.000000 r_2_3_5 > 28.150812
s_1_5 + s_1_4 + 1000 r_1_4_5 >= 2
- s_1_5 - s_1_4 - 1000 r_1_4_5 >= -1001
t_1_5 - t_1_4 + 1000.000000 u_1_4_5 - 0.000000 s_1_4  + 0.000000 s_1_1  + 0.000000 s_1_2  + 2000.000000 r_1_4_5 > 1.731500
s_2_5 + s_2_4 + 1000 r_2_4_5 >= 2
- s_2_5 - s_2_4 - 1000 r_2_4_5 >= -1001
t_2_5 - t_2_4 + 1000.000000 u_2_4_5 - 0.000000 s_2_4  + 0.000000 s_2_1  + 0.000000 s_2_2  + 2000.000000 r_2_4_5 > 4.816088
t_1_6 - t_1_5 - 1000.000000 s_1_5  + 0.000000 s_1_1  + 0.000000 s_1_7  > -993.487867
t_1_6 - t_2_5 - 1000.000000 s_2_5  + 0.000000 s_2_1  + 0.000000 s_2_7  > -984.794591
t_2_6 - t_1_5 - 1000.000000 s_1_5  + 0.000000 s_1_1  + 0.000000 s_1_7  > -993.487867
t_2_6 - t_2_5 - 1000.000000 s_2_5  + 0.000000 s_2_1  + 0.000000 s_2_7  > -984.794591
t_1_5 - t_1_7 - 1000.000000 s_1_7  > -985.511925
t_1_5 - t_2_7 - 1000.000000 s_2_7  > -983.718263
t_2_5 - t_1_7 - 1000.000000 s_1_7  > -985.511925
t_2_5 - t_2_7 - 1000.000000 s_2_7  > -983.718263
Binary
s_1_1
s_2_1
s_1_2
s_2_2
s_1_3
s_2_3
s_1_4
s_2_4
s_1_5
s_2_5
s_1_6
s_2_6
s_1_7
s_2_7
u_1_1_2
r_1_1_2
u_2_1_2
r_2_1_2
u_1_1_3
r_1_1_3
u_2_1_3
r_2_1_3
u_1_2_3
r_1_2_3
u_2_2_3
r_2_2_3
u_1_2_5
r_1_2_5
u_2_2_5
r_2_2_5
u_1_3_4
r_1_3_4
u_2_3_4
r_2_3_4
u_1_3_5
r_1_3_5
u_2_3_5
r_2_3_5
u_1_4_5
r_1_4_5
u_2_4_5
r_2_4_5

End
